============================[ Problem Statistics ]=============================
|                                                                             |
|  Number of variables:          2861                                         |
|  Number of clauses:            8538                                         |
|  Parse time:                   0.00 s                                       |
|  Eliminated clauses:           0.10 Mb                                      |
|  Simplification time:          0.00 s                                       |
|                                                                             |
============================[ Search Statistics ]==============================
| Conflicts |          ORIGINAL         |          LEARNT          | Progress |
|           |    Vars  Clauses Literals |    Limit  Clauses Lit/Cl |          |
===============================================================================
|       100 |     816     4196    13783 |     1538      100     76 |  0.035 % |
|       250 |     816     4196    13783 |     1692      250     52 |  0.035 % |
|       475 |     816     4196    13783 |     1861      475     43 |  0.035 % |
|       812 |     816     4196    13783 |     2047      812     37 |  0.035 % |
|      1318 |     816     4196    13783 |     2252     1318     53 |  0.035 % |
|      2077 |     816     4196    13783 |     2477     2077     46 |  0.035 % |
|      3216 |     816     4196    13783 |     2725     1938     33 |  0.035 % |
|      4924 |     816     4196    13783 |     2998     2278     34 |  0.035 % |
|      7486 |     816     4196    13783 |     3297     1656     19 |  0.035 % |
|     11330 |     815     4192    13767 |     3627     2063     40 |  0.070 % |
|     17096 |     815     4192    13767 |     3990     2042     28 |  0.070 % |
|     25745 |     815     4192    13767 |     4389     2421     27 |  0.070 % |
|     38719 |     815     4192    13767 |     4828     4022     21 |  0.070 % |
|     58180 |     815     4192    13767 |     5311     3685     34 |  0.070 % |
|     87372 |     815     4192    13767 |     5842     2998     18 |  0.070 % |
|    131161 |     815     4192    13767 |     6426     4666     34 |  0.070 % |
|    196845 |     815     4192    13767 |     7069     4610     36 |  0.070 % |
|    295371 |     815     4192    13767 |     7776     4967     30 |  0.070 % |
|    443160 |     814     4188    13751 |     8554     5370     29 |  0.105 % |
|    664843 |     814     4188    13751 |     9409     8588     36 |  0.105 % |
|    997368 |     812     4180    13719 |    10350     5604     28 |  0.175 % |
|   1496156 |     812     4180    13719 |    11385     8555     31 |  0.175 % |
|   2244338 |     812     4180    13719 |    12524     5946     33 |  0.175 % |
|   3366612 |     812     4180    13719 |    13776    10508     31 |  0.175 % |
|   5050023 |     812     4180    13719 |    15154    11175     43 |  0.175 % |
|   7575139 |     811     4176    13703 |    16669    12744     33 |  0.210 % |
|  11362814 |     810     4172    13687 |    18336    14303     31 |  0.245 % |
|  17044326 |     809     4168    13671 |    20170    11144     30 |  0.280 % |
|  25566595 |     809     4168    13671 |    22187    11401     29 |  0.280 % |
|  38349998 |     809     4168    13671 |    24405    14935     35 |  0.280 % |
|  57525103 |     809     4168    13671 |    26846    13397     43 |  0.280 % |
===============================================================================
restarts              : 103333
conflicts             : 79919298       (28001 /sec)
decisions             : 97135775       (0.00 % random) (34033 /sec)
propagations          : 14245755981    (4991244 /sec)
conflict literals     : 3048574541     (47.77 % deleted)
Memory used           : 217.44 MB
CPU time              : 2854.15 s

INDETERMINATE
File /Users/damy17/Documents/hw-uni/master-1-uvt/verificare-formala/benchmark/input-files/benchmarkfile9.cnf timed out after 2880 seconds.
